\ Model Routes
\ LP format - for model browsing. Use MPS format to capture full model detail.
Maximize
  - 191.7153353028244 R{0,0} + 623.2046552982704 R{0,1}
   + 623.2046552982704 R{0,2} - 249.2301939667805 R{0,3}
   + 234.7650315204939 R{0,4} + 397.2891588355392 R{0,5}
   + 116.5712220500383 R{0,6} + 824.7678860260821 R{0,7}
   + 568.2280287393723 R{0,8} + 568.2280287393723 R{0,9}
   + 40.33553989466429 R{0,10} + 234.7650315204939 R{0,11}
   + 624.5310073259143 R{0,12} + 2534.194569125169 R{0,13}
   + 355.2498675530766 R{0,14} + 612.3603095537947 R{0,15}
   + 502.5545378511408 R{0,16} + 281.9883365781351 R{0,17}
   + 1036.91056315562 R{0,18} + 227.0117100192371 R{0,19}
   + 505.2168930769965 R{0,20} + 1368.221290689713 R{0,21}
   + 211.0245367999643 R{0,22} + 577.2725144599799 R{0,23}
   + 691.6702573613301 R{0,24} + 358.709646454862 R{0,25}
   - 256.140831891889 R{1,0} - 58.16416216887956 R{1,1}
   - 91.63474298872944 R{1,2} + 340.6214175987212 R{1,3}
   - 55.2973626664326 R{1,4} - 55.2973626664326 R{1,5}
   - 107.4221380219632 R{1,6} - 107.4221380219632 R{1,7}
   + 585.1813778104649 R{1,8} + 957.5542212180021 R{1,9}
   + 488.3712067428066 R{1,10} + 671.785984222289 R{1,11}
   + 890.7399860297371 R{1,12} + 797.0685635890641 R{1,13}
   + 538.0074501889114 R{1,14} + 776.6455705601811 R{1,15}
   + 1196.267729577194 R{1,16} + 770.2998403372412 R{1,17}
   + 784.5969351789944 R{1,18} + 1198.881248318718 R{2,0}
   + 1198.881248318718 R{2,1} - 278.4443928850388 R{2,2}
   - 59.13410337035452 R{2,3} - 157.8661335341549 R{2,4}
   + 339.8649177062732 R{2,5} + 465.2175846111744 R{2,6}
   + 850.147521315537 R{2,7} + 774.166852893441 R{2,8}
   + 944.4411374481308 R{2,9} + 634.4463200799948 R{2,10}
   + 591.0325885092791 R{2,11} + 366.4855544473739 R{2,12}
   + 465.2175846111744 R{2,13} + 725.2351538442874 R{2,14}
   + 723.457097747683 R{2,15} + 117.3864940348481 R{2,16}
   + 461.6414496214935 R{2,17} + 556.5917212165255 R{2,18}
   + 327.3607635982153 R{2,19} + 636.607964083564 R{2,20}
   + 327.3607635982153 R{2,21} + 594.1507212540391 R{2,22}
   + 155.5445209384712 R{2,23} - 260.2482995389823 R{3,0}
   + 681.6721973521264 R{3,1} + 590.513160618656 R{3,2}
   + 951.5158778887762 R{3,3} + 964.828244843382 R{3,4}
   + 666.5751951813709 R{3,5} + 959.7183389871668 R{3,6}
   + 215.2911743688782 R{3,7} + 56.24364783146692 R{3,8}
   + 974.1528243471082 R{3,9} + 481.3690916664502 R{3,10}
   + 56.24364783146692 R{3,11} + 974.1528243471082 R{3,12}
   + 56.24364783146692 R{3,13} + 2075.360840958751 R{3,14}
   + 1415.170450910276 R{3,15} + 777.3518172506997 R{3,16}
   + 1287.778419657952 R{3,17} + 803.6486204306666 R{3,18}
   + 432.4110938045926 R{3,19} + 955.399356769678 R{3,20}
   + 651.6189429747201 R{3,21} + 1592.03063316219 R{3,22}
   + 145.5076800205327 R{3,23} + 689.5260455553821 R{3,24}
   + 531.1895405159763 R{3,25} + 1088.779581797734 R{3,26}
   + 1764.518571513137 R{3,27} + 1858.212085186529 R{3,28}
   + 698.632709490873 R{3,29} + 1545.535031202518 R{3,30}
   + 1577.803025622895 R{3,31} - 242.5208875955131 R{4,0}
   + 1055.572474837385 R{4,1} + 815.5555745140462 R{4,2}
   + 1512.298973211955 R{4,3} + 1142.842525128591 R{4,4}
   + 1186.60594348554 R{4,5} + 866.7062681216225 R{4,6}
   + 864.0435870388471 R{4,7} + 591.2123980004542 R{4,8}
   + 647.3404024995965 R{4,9} + 483.9234002524818 R{4,10}
   + 219.2693553561573 R{4,11} + 803.3663095467716 R{4,12}
   + 1420.6380704485 R{4,13} + 444.3234678799586 R{4,14}
   + 1162.859275457157 R{4,15} + 571.2440669298708 R{4,16}
   + 333.0795795323381 R{4,17} + 421.7286536577237 R{4,18}
   + 416.809629113907 R{4,19} + 957.6721023660632 R{4,20}
   + 416.809629113907 R{4,21} + 755.3471497897875 R{4,22}
   + 1107.12498991816 R{4,23} + 240.9610031649387 R{4,24}
   + 370.1798863225576 R{4,25} + 787.9998394479317 R{4,26}
   + 904.8035508581202 R{4,27} + 633.359477503399 R{4,28}
   + 416.9983303562865 R{4,29} + 916.1396568542659 R{4,30}
   + 1227.227415225373 R{4,31} + 1052.185006442041 R{4,32}
   - 231.9775664337766 R{5,0} + 40.49903117334031 R{5,1}
   + 364.0546919427258 R{5,2} + 102.2176442913997 R{5,3}
   + 517.576956501091 R{5,4} + 796.8092945044278 R{5,5}
   + 1482.094302686444 R{5,6} + 15.2629428206393 R{5,7}
   + 1118.088879348928 R{5,8} + 207.3194514074542 R{5,9}
   + 582.5626359526185 R{5,10} + 1054.458121183567 R{5,11}
   + 1227.273308343943 R{5,12} + 575.3414448775929 R{5,13}
   + 879.7164427465348 R{5,14} + 666.6680637293315 R{5,15}
   + 20.28790028766892 R{5,16} + 875.3022196072272 R{5,17}
   + 608.0783715231813 R{5,18} + 1021.37112278513 R{5,19}
   + 719.5754291897442 R{5,20} - 231.1436095783099 R{6,0}
   + 324.889552843264 R{6,1} + 1348.999169502638 R{6,2}
   + 1153.503530245978 R{6,3} + 953.2978643190113 R{6,4}
   + 809.0499514892699 R{6,5} + 406.1511084571559 R{6,6}
   + 805.3757757493257 R{6,7} + 1816.564778909634 R{6,8}
   + 601.5114399479044 R{6,9} + 970.5425126549173 R{6,10}
   + 804.04276824095 R{6,11} + 1589.829305843677 R{6,12}
   + 966.7529903527125 R{6,13} + 2067.972922277998 R{6,14}
   + 1064.77043419121 R{6,15} + 1978.679094521903 R{6,16}
   + 1646.684967536093 R{6,17} + 1341.943198934046 R{6,18}
   + 1433.801382554531 R{6,19} + 405.3691061466382 R{6,20}
   + 1265.671078772196 R{6,21} + 1228.042854440478 R{6,22}
   + 1574.225172700462 R{6,23} + 1311.34544658904 R{6,24}
   + 787.9051843639558 R{6,25} + 933.0810195172135 R{6,26}
   + 323.3182094514988 R{6,27} + 811.2929570720432 R{6,28}
   + 1205.326567229484 R{6,29} + 604.0890026006318 R{6,30}
   + 1117.013451434016 R{6,31} + 1039.429083583668 R{6,32}
Subject To
 R00: R{0,0} <= 1
 R01: R{0,1} <= 1
 R02: R{0,2} <= 1
 R03: R{0,3} <= 1
 R04: R{0,4} <= 1
 R05: R{0,5} <= 1
 R06: R{0,6} <= 1
 R07: R{0,7} <= 1
 R08: R{0,8} <= 1
 R09: R{0,9} <= 1
 R010: R{0,10} <= 1
 R011: R{0,11} <= 1
 R012: R{0,12} <= 1
 R013: R{0,13} <= 1
 R014: R{0,14} <= 1
 R015: R{0,15} <= 1
 R016: R{0,16} <= 1
 R017: R{0,17} <= 1
 R018: R{0,18} <= 1
 R019: R{0,19} <= 1
 R020: R{0,20} <= 1
 R021: R{0,21} <= 1
 R022: R{0,22} <= 1
 R023: R{0,23} <= 1
 R024: R{0,24} <= 1
 R025: R{0,25} <= 1
 R026: R{1,0} <= 1
 R027: R{1,1} <= 1
 R028: R{1,2} <= 1
 R029: R{1,3} <= 1
 R030: R{1,4} <= 1
 R031: R{1,5} <= 1
 R032: R{1,6} <= 1
 R033: R{1,7} <= 1
 R034: R{1,8} <= 1
 R035: R{1,9} <= 1
 R036: R{1,10} <= 1
 R037: R{1,11} <= 1
 R038: R{1,12} <= 1
 R039: R{1,13} <= 1
 R040: R{1,14} <= 1
 R041: R{1,15} <= 1
 R042: R{1,16} <= 1
 R043: R{1,17} <= 1
 R044: R{1,18} <= 1
 R045: R{2,0} <= 1
 R046: R{2,1} <= 1
 R047: R{2,2} <= 1
 R048: R{2,3} <= 1
 R049: R{2,4} <= 1
 R050: R{2,5} <= 1
 R051: R{2,6} <= 1
 R052: R{2,7} <= 1
 R053: R{2,8} <= 1
 R054: R{2,9} <= 1
 R055: R{2,10} <= 1
 R056: R{2,11} <= 1
 R057: R{2,12} <= 1
 R058: R{2,13} <= 1
 R059: R{2,14} <= 1
 R060: R{2,15} <= 1
 R061: R{2,16} <= 1
 R062: R{2,17} <= 1
 R063: R{2,18} <= 1
 R064: R{2,19} <= 1
 R065: R{2,20} <= 1
 R066: R{2,21} <= 1
 R067: R{2,22} <= 1
 R068: R{2,23} <= 1
 R069: R{3,0} <= 1
 R070: R{3,1} <= 1
 R071: R{3,2} <= 1
 R072: R{3,3} <= 1
 R073: R{3,4} <= 1
 R074: R{3,5} <= 1
 R075: R{3,6} <= 1
 R076: R{3,7} <= 1
 R077: R{3,8} <= 1
 R078: R{3,9} <= 1
 R079: R{3,10} <= 1
 R080: R{3,11} <= 1
 R081: R{3,12} <= 1
 R082: R{3,13} <= 1
 R083: R{3,14} <= 1
 R084: R{3,15} <= 1
 R085: R{3,16} <= 1
 R086: R{3,17} <= 1
 R087: R{3,18} <= 1
 R088: R{3,19} <= 1
 R089: R{3,20} <= 1
 R090: R{3,21} <= 1
 R091: R{3,22} <= 1
 R092: R{3,23} <= 1
 R093: R{3,24} <= 1
 R094: R{3,25} <= 1
 R095: R{3,26} <= 1
 R096: R{3,27} <= 1
 R097: R{3,28} <= 1
 R098: R{3,29} <= 1
 R099: R{3,30} <= 1
 R0100: R{3,31} <= 1
 R0101: R{4,0} <= 1
 R0102: R{4,1} <= 1
 R0103: R{4,2} <= 1
 R0104: R{4,3} <= 1
 R0105: R{4,4} <= 1
 R0106: R{4,5} <= 1
 R0107: R{4,6} <= 1
 R0108: R{4,7} <= 1
 R0109: R{4,8} <= 1
 R0110: R{4,9} <= 1
 R0111: R{4,10} <= 1
 R0112: R{4,11} <= 1
 R0113: R{4,12} <= 1
 R0114: R{4,13} <= 1
 R0115: R{4,14} <= 1
 R0116: R{4,15} <= 1
 R0117: R{4,16} <= 1
 R0118: R{4,17} <= 1
 R0119: R{4,18} <= 1
 R0120: R{4,19} <= 1
 R0121: R{4,20} <= 1
 R0122: R{4,21} <= 1
 R0123: R{4,22} <= 1
 R0124: R{4,23} <= 1
 R0125: R{4,24} <= 1
 R0126: R{4,25} <= 1
 R0127: R{4,26} <= 1
 R0128: R{4,27} <= 1
 R0129: R{4,28} <= 1
 R0130: R{4,29} <= 1
 R0131: R{4,30} <= 1
 R0132: R{4,31} <= 1
 R0133: R{4,32} <= 1
 R0134: R{5,0} <= 1
 R0135: R{5,1} <= 1
 R0136: R{5,2} <= 1
 R0137: R{5,3} <= 1
 R0138: R{5,4} <= 1
 R0139: R{5,5} <= 1
 R0140: R{5,6} <= 1
 R0141: R{5,7} <= 1
 R0142: R{5,8} <= 1
 R0143: R{5,9} <= 1
 R0144: R{5,10} <= 1
 R0145: R{5,11} <= 1
 R0146: R{5,12} <= 1
 R0147: R{5,13} <= 1
 R0148: R{5,14} <= 1
 R0149: R{5,15} <= 1
 R0150: R{5,16} <= 1
 R0151: R{5,17} <= 1
 R0152: R{5,18} <= 1
 R0153: R{5,19} <= 1
 R0154: R{5,20} <= 1
 R0155: R{6,0} <= 1
 R0156: R{6,1} <= 1
 R0157: R{6,2} <= 1
 R0158: R{6,3} <= 1
 R0159: R{6,4} <= 1
 R0160: R{6,5} <= 1
 R0161: R{6,6} <= 1
 R0162: R{6,7} <= 1
 R0163: R{6,8} <= 1
 R0164: R{6,9} <= 1
 R0165: R{6,10} <= 1
 R0166: R{6,11} <= 1
 R0167: R{6,12} <= 1
 R0168: R{6,13} <= 1
 R0169: R{6,14} <= 1
 R0170: R{6,15} <= 1
 R0171: R{6,16} <= 1
 R0172: R{6,17} <= 1
 R0173: R{6,18} <= 1
 R0174: R{6,19} <= 1
 R0175: R{6,20} <= 1
 R0176: R{6,21} <= 1
 R0177: R{6,22} <= 1
 R0178: R{6,23} <= 1
 R0179: R{6,24} <= 1
 R0180: R{6,25} <= 1
 R0181: R{6,26} <= 1
 R0182: R{6,27} <= 1
 R0183: R{6,28} <= 1
 R0184: R{6,29} <= 1
 R0185: R{6,30} <= 1
 R0186: R{6,31} <= 1
 R0187: R{6,32} <= 1
 R1_0: R{0,0} + R{0,1} + R{0,2} + R{0,3} + R{0,4} + R{0,5} + R{0,6}
   + R{0,7} + R{0,8} + R{0,9} + R{0,10} + R{0,11} + R{0,12} + R{0,13}
   + R{0,14} + R{0,15} + R{0,16} + R{0,17} + R{0,18} + R{0,19} + R{0,20}
   + R{0,21} + R{0,22} + R{0,23} + R{0,24} + R{0,25} <= 1
 R1_1: R{1,0} + R{1,1} + R{1,2} + R{1,3} + R{1,4} + R{1,5} + R{1,6}
   + R{1,7} + R{1,8} + R{1,9} + R{1,10} + R{1,11} + R{1,12} + R{1,13}
   + R{1,14} + R{1,15} + R{1,16} + R{1,17} + R{1,18} <= 1
 R1_2: R{2,0} + R{2,1} + R{2,2} + R{2,3} + R{2,4} + R{2,5} + R{2,6}
   + R{2,7} + R{2,8} + R{2,9} + R{2,10} + R{2,11} + R{2,12} + R{2,13}
   + R{2,14} + R{2,15} + R{2,16} + R{2,17} + R{2,18} + R{2,19} + R{2,20}
   + R{2,21} + R{2,22} + R{2,23} <= 1
 R1_3: R{3,0} + R{3,1} + R{3,2} + R{3,3} + R{3,4} + R{3,5} + R{3,6}
   + R{3,7} + R{3,8} + R{3,9} + R{3,10} + R{3,11} + R{3,12} + R{3,13}
   + R{3,14} + R{3,15} + R{3,16} + R{3,17} + R{3,18} + R{3,19} + R{3,20}
   + R{3,21} + R{3,22} + R{3,23} + R{3,24} + R{3,25} + R{3,26} + R{3,27}
   + R{3,28} + R{3,29} + R{3,30} + R{3,31} <= 1
 R1_4: R{4,0} + R{4,1} + R{4,2} + R{4,3} + R{4,4} + R{4,5} + R{4,6}
   + R{4,7} + R{4,8} + R{4,9} + R{4,10} + R{4,11} + R{4,12} + R{4,13}
   + R{4,14} + R{4,15} + R{4,16} + R{4,17} + R{4,18} + R{4,19} + R{4,20}
   + R{4,21} + R{4,22} + R{4,23} + R{4,24} + R{4,25} + R{4,26} + R{4,27}
   + R{4,28} + R{4,29} + R{4,30} + R{4,31} + R{4,32} <= 1
 R1_5: R{5,0} + R{5,1} + R{5,2} + R{5,3} + R{5,4} + R{5,5} + R{5,6}
   + R{5,7} + R{5,8} + R{5,9} + R{5,10} + R{5,11} + R{5,12} + R{5,13}
   + R{5,14} + R{5,15} + R{5,16} + R{5,17} + R{5,18} + R{5,19} + R{5,20}
   <= 1
 R1_6: R{6,0} + R{6,1} + R{6,2} + R{6,3} + R{6,4} + R{6,5} + R{6,6}
   + R{6,7} + R{6,8} + R{6,9} + R{6,10} + R{6,11} + R{6,12} + R{6,13}
   + R{6,14} + R{6,15} + R{6,16} + R{6,17} + R{6,18} + R{6,19} + R{6,20}
   + R{6,21} + R{6,22} + R{6,23} + R{6,24} + R{6,25} + R{6,26} + R{6,27}
   + R{6,28} + R{6,29} + R{6,30} + R{6,31} + R{6,32} <= 1
 R2_0: 7 R{0,23} + 7 R{0,24} + 7 R{0,25} + 7 R{3,30} + 7 R{4,29}
   + 7 R{4,31} + 7 R{5,19} + 7 R{6,29} + 7 R{6,31} <= 7
 R2_1: 10 R{0,10} + 10 R{0,13} + 10 R{0,16} + 10 R{1,9} + 10 R{1,16}
   + 10 R{2,17} + 10 R{2,23} + 10 R{3,1} + 10 R{3,2} + 10 R{3,3}
   + 10 R{3,4} + 10 R{3,6} + 10 R{3,9} + 10 R{3,10} + 10 R{3,12}
   + 10 R{3,15} + 10 R{3,16} + 10 R{3,17} + 10 R{3,21} + 10 R{3,22}
   + 10 R{3,26} + 10 R{3,28} + 10 R{3,31} + 10 R{5,5} + 10 R{5,10}
   + 10 R{5,11} + 10 R{5,13} + 10 R{5,14} + 10 R{5,15} + 10 R{5,19}
   + 10 R{5,20} + 10 R{6,14} + 10 R{6,16} + 10 R{6,18} + 10 R{6,31} <= 10
 R2_2: <= 0
 R2_3: 4 R{1,17} + 4 R{1,18} + 4 R{5,1} + 4 R{5,2} + 4 R{5,3} + 4 R{5,4}
   + 4 R{5,5} + 4 R{5,8} + 4 R{5,11} + 4 R{5,12} + 4 R{5,17} + 4 R{5,19}
   <= 4
 R2_4: <= 0
 R2_5: 5 R{5,1} + 5 R{5,2} + 5 R{5,3} + 5 R{5,7} + 5 R{5,9} + 5 R{5,10}
   + 5 R{5,18} <= 5
 R2_6: 10 R{0,16} + 10 R{0,25} + 10 R{1,8} + 10 R{1,9} + 10 R{1,13}
   + 10 R{1,17} + 10 R{1,18} + 10 R{2,17} + 10 R{4,31} + 10 R{5,5}
   + 10 R{5,11} + 10 R{5,18} + 10 R{5,20} + 10 R{6,1} + 10 R{6,2}
   + 10 R{6,3} + 10 R{6,4} + 10 R{6,5} + 10 R{6,6} + 10 R{6,7} + 10 R{6,8}
   + 10 R{6,9} + 10 R{6,10} + 10 R{6,11} + 10 R{6,12} + 10 R{6,13}
   + 10 R{6,14} + 10 R{6,16} + 10 R{6,18} + 10 R{6,19} + 10 R{6,20}
   + 10 R{6,21} + 10 R{6,22} + 10 R{6,25} + 10 R{6,26} + 10 R{6,28}
   + 10 R{6,29} + 10 R{6,32} <= 10
 R2_7: <= 0
 R2_8: 9 R{4,25} <= 9
 R2_9: 12 R{0,15} + 12 R{0,24} + 12 R{2,19} + 12 R{2,21} + 12 R{4,1}
   + 12 R{4,2} + 12 R{4,3} + 12 R{4,4} + 12 R{4,5} + 12 R{4,6} + 12 R{4,7}
   + 12 R{4,8} + 12 R{4,9} + 12 R{4,10} + 12 R{4,11} + 12 R{4,12}
   + 12 R{4,13} + 12 R{4,14} + 12 R{4,15} + 12 R{4,16} + 12 R{4,17}
   + 12 R{4,18} + 12 R{4,19} + 12 R{4,20} + 12 R{4,21} + 12 R{4,22}
   + 12 R{4,23} + 12 R{4,24} + 12 R{4,25} + 12 R{4,26} + 12 R{4,27}
   + 12 R{4,28} + 12 R{4,30} + 12 R{4,31} + 12 R{4,32} <= 12
 R2_10: <= 8
 R2_11: 15 R{0,20} + 15 R{0,21} + 15 R{0,23} + 15 R{0,24} + 15 R{2,20}
   + 15 R{4,24} <= 15
 R2_12: <= 0
 R2_13: <= 0
 R2_14: <= 0
 R2_15: 11 R{0,0} + 11 R{0,1} + 11 R{0,2} + 11 R{0,17} + 11 R{0,23}
   + 11 R{4,1} + 11 R{4,2} + 11 R{4,3} + 11 R{4,5} + 11 R{4,7} + 11 R{4,8}
   + 11 R{4,10} + 11 R{4,11} + 11 R{4,12} + 11 R{4,13} + 11 R{4,14}
   + 11 R{4,16} + 11 R{4,23} + 11 R{4,26} + 11 R{4,31} <= 11
 R2_16: 5 R{0,7} + 5 R{0,12} + 5 R{0,13} + 5 R{0,14} + 5 R{0,18}
   + 5 R{0,20} + 5 R{4,5} + 5 R{4,6} + 5 R{4,9} + 5 R{4,12} + 5 R{4,18}
   + 5 R{4,20} + 5 R{4,22} + 5 R{4,26} + 5 R{4,27} + 5 R{4,30} + 5 R{4,32}
   + 5 R{6,23} <= 5
 R2_17: 11 R{1,11} + 11 R{1,12} + 11 R{1,13} + 11 R{1,16} + 11 R{4,23}
   + 11 R{6,27} <= 11
 R2_18: <= 0
 R2_19: 11 R{0,6} + 11 R{3,14} + 11 R{3,27} + 11 R{3,30} + 11 R{4,1}
   + 11 R{4,2} + 11 R{4,3} + 11 R{4,5} + 11 R{4,7} + 11 R{4,13} + 11 R{5,4}
   + 11 R{5,6} + 11 R{5,8} + 11 R{5,12} + 11 R{5,17} + 11 R{6,15} <= 11
 R2_20: 13 R{0,5} + 13 R{0,22} + 13 R{1,14} + 13 R{1,15} + 13 R{2,5}
   + 13 R{2,6} + 13 R{2,12} + 13 R{2,13} + 13 R{2,18} + 13 R{2,22}
   + 13 R{3,1} + 13 R{3,2} + 13 R{3,3} + 13 R{3,4} + 13 R{3,5} + 13 R{3,6}
   + 13 R{3,9} + 13 R{3,12} + 13 R{3,14} + 13 R{3,15} + 13 R{3,17}
   + 13 R{3,18} + 13 R{3,20} + 13 R{3,22} + 13 R{3,24} + 13 R{3,26}
   + 13 R{3,27} + 13 R{3,28} + 13 R{3,29} + 13 R{3,30} + 13 R{3,31}
   + 13 R{4,30} + 13 R{5,2} + 13 R{5,14} + 13 R{5,15} + 13 R{5,17}
   + 13 R{6,30} <= 13
 R2_21: <= 0
 R2_22: 10 R{3,16} + 10 R{3,25} + 10 R{4,15} + 10 R{4,17} + 10 R{4,26}
   + 10 R{4,29} + 10 R{6,14} + 10 R{6,16} + 10 R{6,17} + 10 R{6,19}
   + 10 R{6,23} + 10 R{6,28} <= 10
 R2_23: 14 R{0,1} + 14 R{0,2} + 14 R{0,7} + 14 R{0,8} + 14 R{0,9}
   + 14 R{0,13} + 14 R{0,15} + 14 R{0,17} + 14 R{0,18} + 14 R{0,19}
   + 14 R{2,0} + 14 R{2,1} + 14 R{2,7} + 14 R{2,8} + 14 R{2,9} + 14 R{2,11}
   + 14 R{2,15} + 14 R{2,19} + 14 R{2,21} + 14 R{3,15} + 14 R{3,31}
   + 14 R{4,4} + 14 R{4,19} + 14 R{4,21} + 14 R{4,25} + 14 R{6,2}
   + 14 R{6,3} + 14 R{6,5} + 14 R{6,7} + 14 R{6,8} + 14 R{6,10}
   + 14 R{6,12} + 14 R{6,14} + 14 R{6,16} + 14 R{6,18} + 14 R{6,19}
   + 14 R{6,21} + 14 R{6,23} <= 14
 R2_24: <= 10
 R2_25: 13 R{0,13} + 13 R{0,21} + 13 R{3,19} + 13 R{4,1} + 13 R{4,2}
   + 13 R{4,3} + 13 R{4,4} + 13 R{4,5} + 13 R{4,6} + 13 R{4,7} + 13 R{4,8}
   + 13 R{4,9} + 13 R{4,10} + 13 R{4,11} + 13 R{4,12} + 13 R{4,13}
   + 13 R{4,14} + 13 R{4,16} + 13 R{4,18} + 13 R{4,20} + 13 R{4,22}
   + 13 R{4,24} + 13 R{4,27} + 13 R{4,30} + 13 R{4,31} + 13 R{5,6}
   + 13 R{5,8} + 13 R{5,12} + 13 R{6,24} <= 13
 R2_26: 6 R{1,1} + 6 R{1,2} + 6 R{1,3} + 6 R{1,4} + 6 R{1,5} + 6 R{1,6}
   + 6 R{1,7} + 6 R{1,8} + 6 R{1,10} + 6 R{1,11} + 6 R{1,12} + 6 R{1,16}
   + 6 R{3,25} + 6 R{3,28} + 6 R{4,32} + 6 R{5,9} + 6 R{5,16} <= 6
 R2_27: 5 R{0,13} + 5 R{1,3} + 5 R{1,11} + 5 R{1,12} + 5 R{1,13}
   + 5 R{1,14} + 5 R{1,16} + 5 R{2,22} + 5 R{3,20} + 5 R{3,22} + 5 R{4,3}
   + 5 R{4,23} + 5 R{5,11} + 5 R{5,12} + 5 R{6,4} + 5 R{6,13} + 5 R{6,15}
   + 5 R{6,25} + 5 R{6,26} + 5 R{6,31} <= 5
 R2_28: <= 0
 R2_29: <= 0
 R2_30: <= 0
 R2_31: 6 R{6,1} + 6 R{6,2} + 6 R{6,4} + 6 R{6,6} + 6 R{6,8} + 6 R{6,11}
   + 6 R{6,12} + 6 R{6,13} + 6 R{6,14} + 6 R{6,15} + 6 R{6,16} + 6 R{6,17}
   + 6 R{6,18} + 6 R{6,19} + 6 R{6,20} + 6 R{6,21} + 6 R{6,22} + 6 R{6,23}
   + 6 R{6,25} + 6 R{6,26} + 6 R{6,27} + 6 R{6,28} + 6 R{6,29} + 6 R{6,30}
   + 6 R{6,32} <= 6
 R2_32: 7 R{0,4} + 7 R{0,5} + 7 R{0,11} + 7 R{0,16} + 7 R{1,8} + 7 R{2,18}
   + 7 R{5,4} + 7 R{5,5} + 7 R{5,17} + 7 R{5,19} <= 7
 R2_33: 12 R{1,10} + 12 R{1,15} + 12 R{5,5} + 12 R{5,11} + 12 R{5,19}
   + 12 R{6,26} + 12 R{6,31} <= 12
 R2_34: 5 R{0,13} + 5 R{0,21} + 5 R{0,24} + 5 R{1,16} + 5 R{3,14}
   + 5 R{3,18} + 5 R{3,28} + 5 R{3,31} + 5 R{4,31} + 5 R{5,19} + 5 R{6,21}
   + 5 R{6,22} + 5 R{6,29} + 5 R{6,32} <= 5
 R2_35: 13 R{1,12} + 13 R{5,5} + 13 R{5,8} + 13 R{5,11} + 13 R{5,12}
   + 13 R{6,17} + 13 R{6,23} + 13 R{6,31} <= 13
 R2_36: <= 0
 R2_37: 5 R{1,10} + 5 R{4,31} + 5 R{5,1} + 5 R{5,3} + 5 R{5,7} + 5 R{5,9}
   + 5 R{5,10} <= 5
 R2_38: <= 0
 R2_39: <= 0
 R2_40: 15 R{1,17} + 15 R{1,18} + 15 R{2,3} + 15 R{2,4} + 15 R{2,5}
   + 15 R{2,6} + 15 R{2,12} + 15 R{2,13} + 15 R{2,18} + 15 R{2,23} <= 15
 R2_41: <= 5
 R2_42: 4 R{2,3} + 4 R{2,4} + 4 R{2,5} + 4 R{2,6} + 4 R{2,12} + 4 R{2,13}
   + 4 R{2,18} + 4 R{2,23} <= 4
 R2_43: <= 0
 R2_44: <= 0
 R2_45: <= 0
 R2_46: 9 R{0,13} + 9 R{0,21} + 9 R{4,15} + 9 R{6,8} + 9 R{6,12}
   + 9 R{6,14} + 9 R{6,16} + 9 R{6,17} + 9 R{6,19} <= 9
 R2_47: 7 R{1,1} + 7 R{1,2} + 7 R{1,3} + 7 R{1,4} + 7 R{1,5} + 7 R{1,12}
   <= 7
 R2_48: 4 R{0,18} + 4 R{0,20} + 4 R{4,1} + 4 R{4,2} + 4 R{4,3} + 4 R{4,4}
   + 4 R{4,5} + 4 R{4,6} + 4 R{4,7} + 4 R{4,8} + 4 R{4,10} + 4 R{4,12}
   + 4 R{4,13} + 4 R{4,14} + 4 R{4,15} + 4 R{4,16} + 4 R{4,20} + 4 R{4,22}
   + 4 R{4,23} + 4 R{4,26} + 4 R{4,28} + 4 R{4,31} + 4 R{6,24} <= 4
 R2_49: <= 0
 R2_50: <= 0
 R2_51: 11 R{1,10} + 11 R{1,15} + 11 R{1,18} + 11 R{2,17} + 11 R{4,32}
   + 11 R{5,16} <= 11
 R2_52: 10 R{0,24} + 10 R{4,27} + 10 R{4,28} + 10 R{4,29} + 10 R{4,32}
   <= 10
 R2_53: 13 R{4,1} + 13 R{4,2} + 13 R{4,3} + 13 R{4,4} + 13 R{4,5}
   + 13 R{4,6} + 13 R{4,7} + 13 R{4,8} + 13 R{4,9} + 13 R{4,10}
   + 13 R{4,12} + 13 R{4,17} + 13 R{4,18} + 13 R{4,23} + 13 R{4,26} <= 13
 R2_54: 9 R{3,1} + 9 R{3,2} + 9 R{3,3} + 9 R{3,4} + 9 R{3,5} + 9 R{3,6}
   + 9 R{3,7} + 9 R{3,8} + 9 R{3,9} + 9 R{3,10} + 9 R{3,11} + 9 R{3,12}
   + 9 R{3,13} + 9 R{3,14} + 9 R{3,15} + 9 R{3,16} + 9 R{3,17} + 9 R{3,19}
   + 9 R{3,20} + 9 R{3,21} + 9 R{3,23} + 9 R{3,24} + 9 R{3,25} + 9 R{3,26}
   + 9 R{3,27} + 9 R{3,28} + 9 R{3,29} + 9 R{3,30} <= 9
 R2_55: 8 R{1,17} + 8 R{1,18} + 8 R{4,32} <= 8
 R2_56: 6 R{2,0} + 6 R{2,1} + 6 R{2,7} + 6 R{2,9} + 6 R{2,10} + 6 R{2,14}
   + 6 R{2,15} + 6 R{3,14} + 6 R{3,27} + 6 R{3,28} + 6 R{4,13} + 6 R{4,20}
   + 6 R{4,27} + 6 R{4,28} + 6 R{5,6} + 6 R{6,2} + 6 R{6,3} + 6 R{6,4}
   + 6 R{6,7} + 6 R{6,8} + 6 R{6,9} + 6 R{6,10} + 6 R{6,11} + 6 R{6,12}
   + 6 R{6,13} + 6 R{6,15} + 6 R{6,22} + 6 R{6,29} + 6 R{6,32} <= 6
 R2_57: <= 0
 R2_58: 15 R{0,18} + 15 R{0,20} <= 15
 R2_59: 10 R{0,13} + 10 R{0,15} + 10 R{0,18} + 10 R{0,21} + 10 R{1,12}
   + 10 R{3,17} + 10 R{3,22} + 10 R{4,15} + 10 R{4,16} + 10 R{4,32}
   + 10 R{5,6} + 10 R{5,8} + 10 R{6,14} + 10 R{6,16} + 10 R{6,17}
   + 10 R{6,23} <= 10
 R2_60: <= 0
 R2_61: 9 R{0,12} + 9 R{0,13} + 9 R{0,21} + 9 R{2,15} + 9 R{2,20}
   + 9 R{3,4} + 9 R{3,5} + 9 R{3,6} + 9 R{3,7} + 9 R{3,8} + 9 R{3,11}
   + 9 R{3,13} + 9 R{3,15} + 9 R{3,18} + 9 R{3,19} + 9 R{3,21} + 9 R{3,24}
   + 9 R{3,31} + 9 R{6,14} + 9 R{6,16} + 9 R{6,17} + 9 R{6,23} + 9 R{6,24}
   <= 9
 R2_62: 10 R{6,31} <= 10
 R2_63: <= 0
 R2_64: <= 0
 R2_65: 5 R{2,0} + 5 R{2,1} + 5 R{2,8} + 5 R{2,10} + 5 R{2,14} + 5 R{4,22}
   + 5 R{5,8} + 5 R{5,12} + 5 R{6,1} + 5 R{6,2} + 5 R{6,3} + 5 R{6,5}
   + 5 R{6,6} + 5 R{6,8} + 5 R{6,9} + 5 R{6,11} + 5 R{6,18} + 5 R{6,19}
   + 5 R{6,20} + 5 R{6,21} + 5 R{6,22} + 5 R{6,24} + 5 R{6,25} + 5 R{6,26}
   + 5 R{6,27} + 5 R{6,28} + 5 R{6,30} + 5 R{6,31} + 5 R{6,32} <= 5
 R2_66: 7 R{1,8} + 7 R{1,9} + 7 R{1,11} + 7 R{1,13} + 7 R{1,16} + 7 R{1,17}
   + 7 R{1,18} + 7 R{3,21} + 7 R{3,23} + 7 R{3,25} + 7 R{5,19} + 7 R{6,24}
   <= 7
 R2_67: 3 R{0,1} + 3 R{0,2} + 3 R{0,7} + 3 R{0,8} + 3 R{0,9} + 3 R{0,12}
   + 3 R{0,14} + 3 R{0,23} + 3 R{2,0} + 3 R{2,1} + 3 R{2,7} + 3 R{2,8}
   + 3 R{2,9} + 3 R{2,10} + 3 R{2,11} + 3 R{2,14} + 3 R{2,16} + 3 R{2,20}
   + 3 R{3,14} + 3 R{3,27} + 3 R{3,30} + 3 R{6,17} + 3 R{6,24} <= 3
 R2_68: 6 R{1,9} + 6 R{3,25} + 6 R{4,1} + 6 R{4,3} + 6 R{4,4} + 6 R{4,13}
   + 6 R{4,23} + 6 R{5,13} + 6 R{5,18} <= 6
 R2_69: 7 R{0,25} + 7 R{1,15} + 7 R{1,17} + 7 R{3,24} + 7 R{3,26}
   + 7 R{4,1} + 7 R{4,2} + 7 R{4,3} + 7 R{4,4} + 7 R{4,5} + 7 R{4,6}
   + 7 R{4,7} + 7 R{4,8} + 7 R{4,9} + 7 R{4,10} + 7 R{4,11} + 7 R{4,12}
   + 7 R{4,13} + 7 R{4,14} + 7 R{4,15} + 7 R{4,17} + 7 R{4,19} + 7 R{4,21}
   + 7 R{4,23} + 7 R{4,26} + 7 R{4,30} + 7 R{5,6} + 7 R{5,8} + 7 R{5,12}
   + 7 R{5,15} + 7 R{6,17} + 7 R{6,23} <= 7
 R2_70: 11 R{6,1} + 11 R{6,2} + 11 R{6,3} + 11 R{6,4} + 11 R{6,5}
   + 11 R{6,6} + 11 R{6,7} + 11 R{6,8} + 11 R{6,9} + 11 R{6,10}
   + 11 R{6,11} + 11 R{6,12} + 11 R{6,18} + 11 R{6,20} + 11 R{6,25}
   + 11 R{6,30} <= 11
 R2_71: 7 R{3,1} + 7 R{3,2} + 7 R{3,3} + 7 R{3,4} + 7 R{3,5} + 7 R{3,6}
   + 7 R{3,7} + 7 R{3,9} + 7 R{3,10} + 7 R{3,12} + 7 R{3,14} + 7 R{3,15}
   + 7 R{3,16} + 7 R{3,17} + 7 R{3,18} + 7 R{3,19} + 7 R{3,21} + 7 R{3,22}
   + 7 R{3,23} + 7 R{3,27} + 7 R{3,28} + 7 R{3,29} + 7 R{3,30} + 7 R{3,31}
   + 7 R{4,31} + 7 R{6,2} + 7 R{6,3} + 7 R{6,5} + 7 R{6,8} + 7 R{6,10}
   + 7 R{6,12} + 7 R{6,18} + 7 R{6,21} + 7 R{6,22} + 7 R{6,24} + 7 R{6,28}
   + 7 R{6,29} <= 7
 R2_72: <= 0
 R2_73: 11 R{4,29} <= 11
 R2_74: 5 R{5,1} + 5 R{5,2} + 5 R{5,3} + 5 R{5,4} + 5 R{5,7} + 5 R{5,9}
   + 5 R{5,10} + 5 R{5,13} + 5 R{5,14} + 5 R{5,18} + 5 R{5,20} <= 5
 R2_75: 8 R{6,1} + 8 R{6,2} + 8 R{6,3} + 8 R{6,4} + 8 R{6,5} + 8 R{6,6}
   + 8 R{6,7} + 8 R{6,8} + 8 R{6,9} + 8 R{6,10} + 8 R{6,11} + 8 R{6,12}
   + 8 R{6,13} + 8 R{6,14} + 8 R{6,15} + 8 R{6,18} + 8 R{6,19} + 8 R{6,20}
   + 8 R{6,21} + 8 R{6,22} + 8 R{6,25} + 8 R{6,27} + 8 R{6,28} + 8 R{6,29}
   + 8 R{6,30} + 8 R{6,32} <= 8
 R2_76: 12 R{0,4} + 12 R{0,11} + 12 R{1,9} + 12 R{3,3} + 12 R{3,9}
   + 12 R{3,10} + 12 R{3,12} + 12 R{3,14} + 12 R{3,16} + 12 R{3,17}
   + 12 R{3,20} + 12 R{3,22} + 12 R{3,26} + 12 R{3,27} + 12 R{3,28}
   + 12 R{3,29} + 12 R{3,30} + 12 R{5,6} + 12 R{5,10} + 12 R{5,13}
   + 12 R{5,14} + 12 R{5,18} + 12 R{5,20} <= 12
 R2_77: <= 7
Bounds
End
